
(set-logic ALL) 

(declare-datatype MyList ((Nil) (Cons (head Real) (tail MyList)) )) 
(declare-fun l0 () MyList) 
(declare-fun l1 () MyList) 
(declare-fun l2 () MyList) 
(declare-fun l3 () MyList) 
(declare-fun i0 () Real) 
(declare-fun i1 () Real) 
(assert (is-Nil Nil) )
(assert (or (= l3 Nil) (= l0 l0) (= l2 l2)) )
(assert (is-Nil l0) )
(assert (= l3 l3) )
(assert (or (= l0 Nil) (= l0 Nil) (= l3 Nil)) )
(assert (= l0 l0) )
(assert (not (is-Nil l0)) )
(assert (is-Nil l0) )
(check-sat)
